33D32945 STP File, STP Format Version 1.0

SECTION Result
Length 6
Time 0,009667
Algorithm HAKIMI
END

SECTION Comment
Name "Prosty graf 3b"
END

SECTION Graph
Nodes 8
Edges 13
E 1 2 8
E 2 3 5
E 1 5 6
E 2 5 2
E 3 4 4
E 1 7 10
E 3 5 5
E 4 5 4
E 4 6 8
E 5 6 3
E 6 7 5
E 6 8 1
E 7 8 7
END

SECTION Terminals
Terminals 3
T 2
T 5
T 8
END

SECTION Solution
S 2 5 2
S 5 6 3
S 6 8 1
END

EOF
